\ENCODING=ISO-8859-1
\Problem name: IloCplex

Minimize
 obj: 40 x_1 + 60 x_2 + 47 x_3 + 68 x_4 + 60 x_5 - 22 y_1_2 - 18 y_1_3
      - 14 y_1_4 - 22 y_1_5 - 15 y_2_1 - 11 y_2_2 - 20 y_2_3 - 8 y_2_4
      - 14 y_2_5 - 4 y_3_1 - 22 y_3_2 - 10 y_3_3 - 25 y_3_5 - 14 y_4_1
      - 23 y_4_2 - 23 y_4_3 - 5 y_4_4 - 22 y_4_5 - 8 y_5_1 - 23 y_5_2
      - 14 y_5_3 - 5 y_5_4 - 11 y_5_5 - 18 y_6_1 - 5 y_6_2 - 2 y_6_3 - 23 y_6_4
      - 6 y_6_5 - 6 y_7_1 - 8 y_7_2 - 22 y_7_3 - 3 y_7_4 - 15 y_7_5 - 14 y_8_1
      - 21 y_8_2 - 6 y_8_3 - 16 y_8_4 - 14 y_8_5 - 21 y_9_1 - 6 y_9_2 - y_9_3
      - 8 y_9_4 - 3 y_9_5 - 16 y_10_1 - 14 y_10_2 - 13 y_10_3 - 12 y_10_4
      - 22 y_10_5 - 8 y_11_1 - 20 y_11_2 - 15 y_11_3 - 15 y_11_4 - 12 y_11_5
      - 11 y_12_1 - 4 y_12_2 - 9 y_12_3 - 15 y_12_4 - 11 y_12_5 - 2 y_13_1
      - 19 y_13_2 - 13 y_13_3 - 2 y_13_4 - 9 y_13_5 - 15 y_14_1 - 20 y_14_2
      - 17 y_14_3 - 16 y_14_5 - 6 y_15_1 - y_15_2 - 21 y_15_3 - 23 y_15_4
      - y_15_5 - 11 y_16_1 - 21 y_16_2 - 2 y_16_3 - 15 y_16_4 - 17 y_16_5
      - 17 y_17_1 - 17 y_17_2 - 3 y_17_3 - 13 y_17_4 - 3 y_17_5 - 15 y_18_1
      - 5 y_18_2 - 14 y_18_3 - 19 y_18_4 - 7 y_18_5 - 10 y_19_1 - 8 y_19_2
      - 8 y_19_4 - 14 y_19_5 - 22 y_20_1 - 24 y_20_2 - 23 y_20_3 - 14 y_20_4
      - 15 y_20_5 - 14 y_21_1 - 13 y_21_2 - 8 y_21_3 - 2 y_21_4 - 23 y_21_5
      - 21 y_22_1 - 12 y_22_2 - 10 y_22_3 - 12 y_22_4 - 17 y_22_5 - 2 y_23_1
      - 10 y_23_2 - 13 y_23_3 - 10 y_23_4 - 9 y_23_5 - 20 y_24_1 - 21 y_24_2
      - 9 y_24_3 - 20 y_24_4 - 21 y_24_5 - 23 y_25_1 - 18 y_25_2 - 2 y_25_3
      - 9 y_25_4 - 23 y_25_5 + 1000 x_1_0 + 1000 x_2_0 + 1000 x_3_0
      + 1000 x_4_0 + 1000 x_5_0 + obj
Subject To
 c1:  - x_1 - x_2 - x_3 - x_4 - x_5 >= -5
 c2:  188 x_1 - 15 y_2_1 - 4 y_3_1 - 14 y_4_1 - 8 y_5_1 - 18 y_6_1 - 6 y_7_1
      - 14 y_8_1 - 21 y_9_1 - 16 y_10_1 - 8 y_11_1 - 11 y_12_1 - 2 y_13_1
      - 15 y_14_1 - 6 y_15_1 - 11 y_16_1 - 17 y_17_1 - 15 y_18_1 - 10 y_19_1
      - 22 y_20_1 - 14 y_21_1 - 21 y_22_1 - 2 y_23_1 - 20 y_24_1 - 23 y_25_1
      + x_1_0 >= 0
 c3:  188 x_2 - 22 y_1_2 - 11 y_2_2 - 22 y_3_2 - 23 y_4_2 - 23 y_5_2 - 5 y_6_2
      - 8 y_7_2 - 21 y_8_2 - 6 y_9_2 - 14 y_10_2 - 20 y_11_2 - 4 y_12_2
      - 19 y_13_2 - 20 y_14_2 - y_15_2 - 21 y_16_2 - 17 y_17_2 - 5 y_18_2
      - 8 y_19_2 - 24 y_20_2 - 13 y_21_2 - 12 y_22_2 - 10 y_23_2 - 21 y_24_2
      - 18 y_25_2 + x_2_0 >= 0
 c4:  188 x_3 - 18 y_1_3 - 20 y_2_3 - 10 y_3_3 - 23 y_4_3 - 14 y_5_3 - 2 y_6_3
      - 22 y_7_3 - 6 y_8_3 - y_9_3 - 13 y_10_3 - 15 y_11_3 - 9 y_12_3
      - 13 y_13_3 - 17 y_14_3 - 21 y_15_3 - 2 y_16_3 - 3 y_17_3 - 14 y_18_3
      - 23 y_20_3 - 8 y_21_3 - 10 y_22_3 - 13 y_23_3 - 9 y_24_3 - 2 y_25_3
      + x_3_0 >= 0
 c5:  188 x_4 - 14 y_1_4 - 8 y_2_4 - 5 y_4_4 - 5 y_5_4 - 23 y_6_4 - 3 y_7_4
      - 16 y_8_4 - 8 y_9_4 - 12 y_10_4 - 15 y_11_4 - 15 y_12_4 - 2 y_13_4
      - 23 y_15_4 - 15 y_16_4 - 13 y_17_4 - 19 y_18_4 - 8 y_19_4 - 14 y_20_4
      - 2 y_21_4 - 12 y_22_4 - 10 y_23_4 - 20 y_24_4 - 9 y_25_4 + x_4_0 >= 0
 c6:  188 x_5 - 22 y_1_5 - 14 y_2_5 - 25 y_3_5 - 22 y_4_5 - 11 y_5_5 - 6 y_6_5
      - 15 y_7_5 - 14 y_8_5 - 3 y_9_5 - 22 y_10_5 - 12 y_11_5 - 11 y_12_5
      - 9 y_13_5 - 16 y_14_5 - y_15_5 - 17 y_16_5 - 3 y_17_5 - 7 y_18_5
      - 14 y_19_5 - 15 y_20_5 - 23 y_21_5 - 17 y_22_5 - 9 y_23_5 - 21 y_24_5
      - 23 y_25_5 + x_5_0 >= 0
 c7:  y_1_1 + y_1_2 + y_1_3 + y_1_4 + y_1_5  = 1
 c8:  y_2_1 + y_2_2 + y_2_3 + y_2_4 + y_2_5  = 1
 c9:  y_3_1 + y_3_2 + y_3_3 + y_3_4 + y_3_5  = 1
 c10: y_4_1 + y_4_2 + y_4_3 + y_4_4 + y_4_5  = 1
 c11: y_5_1 + y_5_2 + y_5_3 + y_5_4 + y_5_5  = 1
 c12: y_6_1 + y_6_2 + y_6_3 + y_6_4 + y_6_5  = 1
 c13: y_7_1 + y_7_2 + y_7_3 + y_7_4 + y_7_5  = 1
 c14: y_8_1 + y_8_2 + y_8_3 + y_8_4 + y_8_5  = 1
 c15: y_9_1 + y_9_2 + y_9_3 + y_9_4 + y_9_5  = 1
 c16: y_10_1 + y_10_2 + y_10_3 + y_10_4 + y_10_5  = 1
 c17: y_11_1 + y_11_2 + y_11_3 + y_11_4 + y_11_5  = 1
 c18: y_12_1 + y_12_2 + y_12_3 + y_12_4 + y_12_5  = 1
 c19: y_13_1 + y_13_2 + y_13_3 + y_13_4 + y_13_5  = 1
 c20: y_14_1 + y_14_2 + y_14_3 + y_14_4 + y_14_5  = 1
 c21: y_15_1 + y_15_2 + y_15_3 + y_15_4 + y_15_5  = 1
 c22: y_16_1 + y_16_2 + y_16_3 + y_16_4 + y_16_5  = 1
 c23: y_17_1 + y_17_2 + y_17_3 + y_17_4 + y_17_5  = 1
 c24: y_18_1 + y_18_2 + y_18_3 + y_18_4 + y_18_5  = 1
 c25: y_19_1 + y_19_2 + y_19_3 + y_19_4 + y_19_5  = 1
 c26: y_20_1 + y_20_2 + y_20_3 + y_20_4 + y_20_5  = 1
 c27: y_21_1 + y_21_2 + y_21_3 + y_21_4 + y_21_5  = 1
 c28: y_22_1 + y_22_2 + y_22_3 + y_22_4 + y_22_5  = 1
 c29: y_23_1 + y_23_2 + y_23_3 + y_23_4 + y_23_5  = 1
 c30: y_24_1 + y_24_2 + y_24_3 + y_24_4 + y_24_5  = 1
 c31: y_25_1 + y_25_2 + y_25_3 + y_25_4 + y_25_5  = 1
Bounds
 0 <= x_1 <= 1
 0 <= x_2 <= 1
 0 <= x_3 <= 1
 0 <= x_4 <= 1
 0 <= x_5 <= 1
 0 <= y_1_1 <= 1
 0 <= y_1_2 <= 1
 0 <= y_1_3 <= 1
 0 <= y_1_4 <= 1
 0 <= y_1_5 <= 1
 0 <= y_2_1 <= 1
 0 <= y_2_2 <= 1
 0 <= y_2_3 <= 1
 0 <= y_2_4 <= 1
 0 <= y_2_5 <= 1
 0 <= y_3_1 <= 1
 0 <= y_3_2 <= 1
 0 <= y_3_3 <= 1
 0 <= y_3_4 <= 1
 0 <= y_3_5 <= 1
 0 <= y_4_1 <= 1
 0 <= y_4_2 <= 1
 0 <= y_4_3 <= 1
 0 <= y_4_4 <= 1
 0 <= y_4_5 <= 1
 0 <= y_5_1 <= 1
 0 <= y_5_2 <= 1
 0 <= y_5_3 <= 1
 0 <= y_5_4 <= 1
 0 <= y_5_5 <= 1
 0 <= y_6_1 <= 1
 0 <= y_6_2 <= 1
 0 <= y_6_3 <= 1
 0 <= y_6_4 <= 1
 0 <= y_6_5 <= 1
 0 <= y_7_1 <= 1
 0 <= y_7_2 <= 1
 0 <= y_7_3 <= 1
 0 <= y_7_4 <= 1
 0 <= y_7_5 <= 1
 0 <= y_8_1 <= 1
 0 <= y_8_2 <= 1
 0 <= y_8_3 <= 1
 0 <= y_8_4 <= 1
 0 <= y_8_5 <= 1
 0 <= y_9_1 <= 1
 0 <= y_9_2 <= 1
 0 <= y_9_3 <= 1
 0 <= y_9_4 <= 1
 0 <= y_9_5 <= 1
 0 <= y_10_1 <= 1
 0 <= y_10_2 <= 1
 0 <= y_10_3 <= 1
 0 <= y_10_4 <= 1
 0 <= y_10_5 <= 1
 0 <= y_11_1 <= 1
 0 <= y_11_2 <= 1
 0 <= y_11_3 <= 1
 0 <= y_11_4 <= 1
 0 <= y_11_5 <= 1
 0 <= y_12_1 <= 1
 0 <= y_12_2 <= 1
 0 <= y_12_3 <= 1
 0 <= y_12_4 <= 1
 0 <= y_12_5 <= 1
 0 <= y_13_1 <= 1
 0 <= y_13_2 <= 1
 0 <= y_13_3 <= 1
 0 <= y_13_4 <= 1
 0 <= y_13_5 <= 1
 0 <= y_14_1 <= 1
 0 <= y_14_2 <= 1
 0 <= y_14_3 <= 1
 0 <= y_14_4 <= 1
 0 <= y_14_5 <= 1
 0 <= y_15_1 <= 1
 0 <= y_15_2 <= 1
 0 <= y_15_3 <= 1
 0 <= y_15_4 <= 1
 0 <= y_15_5 <= 1
 0 <= y_16_1 <= 1
 0 <= y_16_2 <= 1
 0 <= y_16_3 <= 1
 0 <= y_16_4 <= 1
 0 <= y_16_5 <= 1
 0 <= y_17_1 <= 1
 0 <= y_17_2 <= 1
 0 <= y_17_3 <= 1
 0 <= y_17_4 <= 1
 0 <= y_17_5 <= 1
 0 <= y_18_1 <= 1
 0 <= y_18_2 <= 1
 0 <= y_18_3 <= 1
 0 <= y_18_4 <= 1
 0 <= y_18_5 <= 1
 0 <= y_19_1 <= 1
 0 <= y_19_2 <= 1
 0 <= y_19_3 <= 1
 0 <= y_19_4 <= 1
 0 <= y_19_5 <= 1
 0 <= y_20_1 <= 1
 0 <= y_20_2 <= 1
 0 <= y_20_3 <= 1
 0 <= y_20_4 <= 1
 0 <= y_20_5 <= 1
 0 <= y_21_1 <= 1
 0 <= y_21_2 <= 1
 0 <= y_21_3 <= 1
 0 <= y_21_4 <= 1
 0 <= y_21_5 <= 1
 0 <= y_22_1 <= 1
 0 <= y_22_2 <= 1
 0 <= y_22_3 <= 1
 0 <= y_22_4 <= 1
 0 <= y_22_5 <= 1
 0 <= y_23_1 <= 1
 0 <= y_23_2 <= 1
 0 <= y_23_3 <= 1
 0 <= y_23_4 <= 1
 0 <= y_23_5 <= 1
 0 <= y_24_1 <= 1
 0 <= y_24_2 <= 1
 0 <= y_24_3 <= 1
 0 <= y_24_4 <= 1
 0 <= y_24_5 <= 1
 0 <= y_25_1 <= 1
 0 <= y_25_2 <= 1
 0 <= y_25_3 <= 1
 0 <= y_25_4 <= 1
 0 <= y_25_5 <= 1
      obj = 0
Binaries
 x_1  x_2  x_3  x_4  x_5  y_1_1  y_1_2  y_1_3  y_1_4  y_1_5  y_2_1  y_2_2 
 y_2_3  y_2_4  y_2_5  y_3_1  y_3_2  y_3_3  y_3_4  y_3_5  y_4_1  y_4_2  y_4_3 
 y_4_4  y_4_5  y_5_1  y_5_2  y_5_3  y_5_4  y_5_5  y_6_1  y_6_2  y_6_3  y_6_4 
 y_6_5  y_7_1  y_7_2  y_7_3  y_7_4  y_7_5  y_8_1  y_8_2  y_8_3  y_8_4  y_8_5 
 y_9_1  y_9_2  y_9_3  y_9_4  y_9_5  y_10_1  y_10_2  y_10_3  y_10_4  y_10_5 
 y_11_1  y_11_2  y_11_3  y_11_4  y_11_5  y_12_1  y_12_2  y_12_3  y_12_4 
 y_12_5  y_13_1  y_13_2  y_13_3  y_13_4  y_13_5  y_14_1  y_14_2  y_14_3 
 y_14_4  y_14_5  y_15_1  y_15_2  y_15_3  y_15_4  y_15_5  y_16_1  y_16_2 
 y_16_3  y_16_4  y_16_5  y_17_1  y_17_2  y_17_3  y_17_4  y_17_5  y_18_1 
 y_18_2  y_18_3  y_18_4  y_18_5  y_19_1  y_19_2  y_19_3  y_19_4  y_19_5 
 y_20_1  y_20_2  y_20_3  y_20_4  y_20_5  y_21_1  y_21_2  y_21_3  y_21_4 
 y_21_5  y_22_1  y_22_2  y_22_3  y_22_4  y_22_5  y_23_1  y_23_2  y_23_3 
 y_23_4  y_23_5  y_24_1  y_24_2  y_24_3  y_24_4  y_24_5  y_25_1  y_25_2 
 y_25_3  y_25_4  y_25_5 
End
